SECTION Graph
Nodes 307
Edges 559
E 1 275 5
E 1 277 1
E 1 278 1
E 1 279 6
E 2 279 5
E 3 277 6
E 3 279 1
E 4 278 6
E 4 279 1
E 5 77 1
E 5 155 6
E 5 164 1
E 5 173 6
E 6 77 1
E 6 159 6
E 6 171 1
E 6 177 6
E 7 177 9
E 8 164 6
E 8 173 1
E 9 171 6
E 9 177 1
E 10 11 1
E 10 250 1
E 10 254 1
E 11 255 1
E 11 260 11
E 12 17 13
E 12 263 1
E 12 270 1
E 13 269 1
E 13 270 1
E 13 273 2
E 14 15 1
E 14 230 16
E 14 241 1
E 15 242 1
E 15 250 13
E 16 247 1
E 16 252 1
E 17 251 1
E 17 252 1
E 18 19 1
E 18 264 1
E 18 265 1
E 19 268 1
E 20 265 12
E 20 274 7
E 21 29 1
E 21 226 20
E 21 229 10
E 22 229 1
E 22 231 1
E 23 25 5
E 23 230 1
E 23 232 1
E 23 237 10
E 24 232 10
E 24 237 1
E 24 239 1
E 24 243 14
E 25 26 10
E 25 27 5
E 25 228 1
E 26 28 5
E 26 235 1
E 26 237 5
E 27 28 10
E 27 29 1
E 27 227 1
E 28 30 1
E 28 233 1
E 29 30 10
E 30 229 1
E 30 231 1
E 31 32 2
E 31 219 1
E 31 220 9
E 32 202 21
E 32 221 9
E 33 185 47
E 33 224 1
E 33 226 1
E 34 213 18
E 34 219 9
E 34 220 1
E 34 222 5
E 35 205 30
E 35 221 1
E 35 225 5
E 36 144 14
E 36 158 3
E 36 166 1
E 36 179 12
E 37 174 5
E 37 179 1
E 37 185 1
E 37 215 22
E 38 39 2
E 38 165 5
E 38 172 1
E 38 178 6
E 39 170 5
E 39 176 1
E 39 183 6
E 40 187 6
E 40 194 2
E 40 199 1
E 40 200 1
E 41 147 22
E 41 172 6
E 41 178 1
E 41 184 3
E 42 176 6
E 42 183 1
E 42 188 3
E 42 203 10
E 43 107 1
E 43 108 1
E 43 113 3
E 43 121 8
E 44 120 4
E 44 127 1
E 45 234 9
E 46 234 6
E 46 236 1
E 47 234 1
E 47 236 6
E 48 234 3
E 49 50 10
E 49 64 7
E 49 92 3
E 49 94 3
E 50 65 7
E 50 99 3
E 51 96 10
E 51 99 1
E 51 102 1
E 51 105 5
E 52 53 10
E 52 68 9
E 52 86 3
E 52 88 3
E 53 69 9
E 53 91 3
E 54 87 12
E 54 91 1
E 54 93 6
E 55 56 10
E 55 72 9
E 55 80 3
E 55 81 3
E 56 73 9
E 56 84 3
E 57 84 1
E 57 85 6
E 58 100 46
E 58 168 2
E 59 180 1
E 59 192 6
E 60 61 10
E 60 98 5
E 60 100 2
E 60 146 32
E 61 109 5
E 61 117 1
E 61 162 32
E 62 92 9
E 62 97 3
E 62 100 8
E 63 97 10
E 63 101 5
E 63 106 1
E 63 109 2
E 64 65 10
E 64 89 7
E 64 90 3
E 65 67 7
E 65 96 1
E 66 86 9
E 66 89 3
E 66 90 7
E 67 89 10
E 67 91 6
E 67 93 1
E 68 69 10
E 68 82 7
E 68 83 3
E 69 71 7
E 69 87 1
E 70 80 9
E 70 82 3
E 70 83 7
E 71 82 10
E 71 84 6
E 71 85 1
E 72 73 10
E 72 78 7
E 72 79 3
E 73 75 7
E 74 78 3
E 74 79 7
E 75 78 10
E 76 125 3
E 76 129 1
E 76 135 4
E 76 137 5
E 77 157 6
E 77 175 6
E 79 80 9
E 81 82 6
E 81 84 10
E 83 86 9
E 85 87 7
E 88 89 6
E 88 91 10
E 90 92 7
E 93 96 7
E 94 95 1
E 94 99 10
E 95 97 5
E 95 101 10
E 97 98 2
E 98 109 10
E 99 101 1
E 101 102 1
E 102 103 3
E 102 107 5
E 103 104 1
E 103 111 5
E 104 106 1
E 104 112 5
E 105 107 1
E 105 108 1
E 106 110 2
E 106 114 5
E 107 111 3
E 108 120 8
E 109 110 1
E 110 117 5
E 110 118 5
E 111 112 1
E 111 113 1
E 112 114 1
E 112 115 1
E 113 115 1
E 113 123 8
E 114 116 1
E 114 118 2
E 115 116 1
E 115 126 8
E 116 119 2
E 116 128 8
E 117 122 5
E 117 165 33
E 118 119 1
E 118 122 5
E 119 124 5
E 119 125 5
E 120 121 1
E 121 123 3
E 121 127 4
E 122 124 1
E 122 136 9
E 123 126 1
E 123 130 4
E 124 132 5
E 125 132 5
E 126 128 1
E 126 131 4
E 127 130 3
E 128 129 1
E 128 133 4
E 129 134 4
E 130 131 1
E 130 138 5
E 131 133 1
E 131 141 5
E 132 137 3
E 132 145 9
E 133 134 1
E 133 142 5
E 134 135 1
E 134 143 5
E 135 140 2
E 135 154 14
E 136 139 1
E 136 145 6
E 137 149 9
E 138 141 1
E 138 153 12
E 139 147 6
E 139 172 22
E 140 144 3
E 140 158 14
E 141 142 1
E 141 155 12
E 142 143 1
E 142 157 12
E 143 144 1
E 143 159 12
E 144 161 12
E 145 147 1
E 145 149 3
E 146 148 1
E 146 162 10
E 147 151 3
E 148 150 2
E 148 163 10
E 149 151 1
E 149 154 4
E 150 152 1
E 150 167 10
E 151 156 4
E 151 184 22
E 152 168 10
E 152 169 10
E 153 155 1
E 153 164 6
E 154 156 1
E 154 158 2
E 155 157 1
E 156 160 2
E 156 189 22
E 157 159 1
E 158 160 1
E 159 161 1
E 160 166 3
E 160 193 22
E 161 171 6
E 161 179 14
E 162 163 1
E 162 172 6
E 163 165 1
E 163 167 2
E 165 170 2
E 166 174 7
E 166 198 22
E 167 169 1
E 167 170 1
E 168 180 10
E 169 176 6
E 169 180 10
E 170 182 11
E 171 181 19
E 173 175 1
E 174 209 22
E 175 177 1
E 176 190 10
E 178 183 2
E 178 186 3
E 179 181 1
E 180 182 1
E 181 185 1
E 182 190 5
E 182 202 11
E 183 187 3
E 184 186 1
E 184 189 4
E 186 187 2
E 186 191 4
E 187 188 1
E 188 196 4
E 189 191 1
E 189 193 2
E 190 192 1
E 190 203 6
E 191 194 2
E 191 196 3
E 192 206 6
E 193 194 1
E 193 195 1
E 194 197 1
E 195 197 1
E 195 198 2
E 196 199 2
E 197 200 2
E 197 201 2
E 198 201 1
E 198 209 7
E 199 204 1
E 199 212 10
E 200 204 1
E 200 207 2
E 201 207 2
E 201 210 7
E 202 205 1
E 203 206 1
E 203 212 9
E 204 208 2
E 204 219 18
E 205 236 77
E 206 214 9
E 207 208 1
E 207 211 7
E 208 213 7
E 209 210 1
E 209 215 5
E 210 211 2
E 210 216 5
E 211 213 1
E 211 217 5
E 212 214 1
E 213 218 5
E 214 219 8
E 215 216 1
E 216 217 2
E 217 218 1
E 218 222 18
E 220 221 2
E 220 223 5
E 221 224 5
E 222 223 1
E 223 224 2
E 224 225 1
E 225 226 1
E 226 227 21
E 227 228 5
E 228 230 5
E 231 233 1
E 232 240 14
E 233 235 5
E 235 238 5
E 236 268 47
E 237 238 1
E 238 239 1
E 239 245 14
E 240 241 1
E 240 243 10
E 241 242 1
E 241 244 10
E 242 246 10
E 242 253 13
E 243 244 1
E 243 245 1
E 244 246 1
E 244 249 2
E 245 247 1
E 245 248 2
E 246 248 1
E 246 259 14
E 247 249 1
E 248 251 1
E 248 262 14
E 249 251 1
E 249 252 1
E 250 253 1
E 251 263 13
E 253 254 1
E 253 263 12
E 254 255 1
E 254 259 10
E 255 256 2
E 255 261 10
E 256 257 1
E 256 271 12
E 257 258 1
E 257 272 12
E 258 265 7
E 258 274 12
E 259 261 1
E 259 262 1
E 260 264 1
E 260 265 1
E 261 266 1
E 262 266 1
E 262 267 1
E 263 267 1
E 264 268 1
E 266 269 1
E 267 269 1
E 267 270 1
E 269 271 2
E 271 272 1
E 271 273 1
E 272 274 1
E 272 275 1
E 273 275 1
E 273 277 5
E 274 276 1
E 275 276 1
E 276 278 5
E 1 280 100000
E 2 280 100000
E 3 280 100000
E 4 280 100000
E 5 281 100000
E 6 281 100000
E 7 281 100000
E 8 281 100000
E 9 281 100000
E 10 282 100000
E 11 282 100000
E 12 282 100000
E 13 282 100000
E 14 283 100000
E 15 283 100000
E 16 283 100000
E 17 283 100000
E 18 284 100000
E 19 284 100000
E 20 284 100000
E 21 285 100000
E 22 285 100000
E 23 286 100000
E 24 286 100000
E 25 287 100000
E 26 287 100000
E 27 288 100000
E 28 288 100000
E 29 289 100000
E 30 289 100000
E 31 290 100000
E 32 290 100000
E 33 290 100000
E 34 290 100000
E 35 290 100000
E 36 291 100000
E 37 291 100000
E 38 292 100000
E 39 292 100000
E 40 292 100000
E 41 292 100000
E 42 292 100000
E 43 293 100000
E 44 293 100000
E 45 294 100000
E 46 294 100000
E 47 294 100000
E 48 294 100000
E 49 295 100000
E 50 295 100000
E 51 295 100000
E 52 296 100000
E 53 296 100000
E 54 296 100000
E 55 297 100000
E 56 297 100000
E 57 297 100000
E 58 298 100000
E 59 298 100000
E 60 299 100000
E 61 299 100000
E 62 300 100000
E 63 300 100000
E 64 301 100000
E 65 301 100000
E 66 302 100000
E 67 302 100000
E 68 303 100000
E 69 303 100000
E 70 304 100000
E 71 304 100000
E 72 305 100000
E 73 305 100000
E 74 306 100000
E 75 306 100000
E 76 307 100000
E 77 281 100000
END

SECTION Terminals
Terminals 28
T 280
T 281
T 282
T 283
T 284
T 285
T 286
T 287
T 288
T 289
T 290
T 291
T 292
T 293
T 294
T 295
T 296
T 297
T 298
T 299
T 300
T 301
T 302
T 303
T 304
T 305
T 306
T 307
END

SECTION Tree Decomposition
c We do not guarantee that this tree decomposition has minimum width.
s td 268 17 307
b 1 307 76
b 2 287 25 26
b 3 289 29 30
b 4 305 73 72
b 5 288 28 27
b 6 301 64 65
b 7 303 68 69
b 8 299 61 60
b 9 7 177 281
b 10 45 234 294
b 11 48 234 294
b 12 306 75 74
b 13 2 279 280
b 14 286 23 24
b 15 285 22 21
b 16 291 36 37
b 17 293 44 43
b 18 300 63 62
b 19 298 59 58
b 20 304 71 70
b 21 302 67 66
b 22 234 294 46 47
b 23 46 47 236
b 24 236 268 205
b 25 295 50 49 51
b 26 75 78 74 73
b 27 78 74 73 72
b 28 74 73 72 79
b 29 73 72 79 56
b 30 72 79 56 55
b 31 79 80 56 55
b 32 22 229 231 21
b 33 229 231 30 21
b 34 296 53 52 54
b 35 231 30 21 233
b 36 297 56 55 57
b 37 19 284 18 268
b 38 284 18 20 268
b 39 80 56 55 70
b 40 86 83 52 66
b 41 87 85 69 54
b 42 88 52 91 89
b 43 90 66 64 92
b 44 93 54 67 96
b 45 94 49 99 95
b 46 261 266 255 259
b 47 260 264 265 11
b 48 98 97 109 60
b 49 100 62 58 60
b 50 257 256 272 258
b 51 103 104 111 102
b 52 29 30 21 27
b 53 30 28 21 233 27
b 54 105 108 107 51
b 55 252 16 17 249
b 56 8 164 173 281
b 57 120 44 121 108
b 58 44 121 127 108 43
b 59 125 132 119 76
b 60 129 128 134 76
b 61 9 177 281 171
b 62 136 139 145 122
b 63 137 132 76 149
b 64 138 153 141 130
b 65 140 135 144 158
b 66 146 148 60 162
b 67 240 232 243 241
b 68 239 238 24 245
b 69 124 132 119 122
b 70 152 168 150 169
b 71 174 209 37 166
b 72 235 233 26 238
b 73 59 180 192 58
b 74 175 177 173 77
b 75 3 279 280 277
b 76 279 280 4 277 1
b 77 4 277 1 278
b 78 277 1 278 273
b 79 1 278 275 273
b 80 278 275 276 273
b 81 275 276 273 272
b 82 276 273 272 274
b 83 223 222 220 224
b 84 185 181 33 37
b 85 188 196 187 42
b 86 195 198 197 193
b 87 202 32 205 182
b 88 206 214 203 192
b 89 208 204 207 213
b 90 212 214 203 199
b 91 216 215 210 217
b 92 218 222 217 213
b 93 230 228 23 14
b 94 247 16 249 245
b 95 250 10 253 15
b 96 227 27 228 226
b 97 270 13 267 12
b 98 225 224 35 226
b 99 81 55 84 82
b 100 28 21 233 27 26
b 101 21 233 27 26 226
b 102 233 27 26 238 226
b 103 121 127 108 43 123
b 104 127 108 43 123 130
b 105 18 264 20 265 268
b 106 264 20 265 268 11
b 107 56 55 84 57 70
b 108 55 84 57 82 70
b 109 84 57 71 82 70
b 110 57 71 82 85 70
b 111 71 82 85 70 69
b 112 82 85 70 68 69
b 113 85 70 68 69 54
b 114 70 68 69 83 54
b 115 68 69 83 52 54
b 116 69 53 83 52 54
b 117 53 83 52 91 54
b 118 83 52 91 54 66
b 119 52 91 54 89 66
b 120 91 54 89 67 66
b 121 54 89 67 66 96
b 122 89 67 66 64 96
b 123 67 66 64 65 96
b 124 66 64 65 96 92
b 125 64 65 96 49 92
b 126 65 96 50 49 92
b 127 96 50 49 92 51
b 128 50 49 99 92 51
b 129 49 99 92 95 51
b 130 99 92 95 101 51
b 131 92 95 101 62 51
b 132 95 101 97 62 51
b 133 16 283 17 249 245
b 134 232 23 24 243 241
b 135 20 265 268 274 11
b 136 265 268 258 274 11
b 137 268 258 274 11 205
b 138 164 5 173 281 153
b 139 215 209 210 217 37
b 140 177 6 173 281 77 171
b 141 148 163 150 60 162
b 142 104 111 112 102 106
b 143 139 147 172 145 122
b 144 168 180 150 169 58
b 145 273 272 271 274 13
b 146 214 203 192 199 219
b 147 256 272 271 258 255
b 148 272 271 258 274 13 255
b 149 271 258 274 13 269 255
b 150 266 262 269 255 259
b 151 181 179 171 33 37
b 152 27 25 26 228 238 226
b 153 25 26 228 238 23 226
b 154 26 237 228 238 23 226
b 155 237 228 238 23 24 226
b 156 228 238 23 24 14 226
b 157 238 23 24 14 245 226
b 158 101 97 63 62 51 102
b 159 6 173 281 77 159 171
b 160 5 173 281 77 155 153
b 161 23 24 243 241 14 245 226
b 162 243 241 14 244 245 226
b 163 241 14 242 244 245 226
b 164 173 281 77 155 153 159 171
b 165 77 155 153 157 159 171
b 166 155 153 157 141 159 171
b 167 153 157 141 159 171 130
b 168 157 141 142 159 171 130
b 169 141 131 142 159 171 130
b 170 282 11 13 12 10
b 171 196 187 191 42 199
b 172 31 220 290 32 219
b 173 179 161 36 171 33 37
b 174 132 119 145 122 76 149
b 175 108 43 123 107 51 130
b 176 43 123 107 113 51 130
b 177 123 107 113 51 126 130
b 178 209 210 198 217 37 166
b 179 258 274 11 13 269 255 205
b 180 251 263 248 17 249
b 181 176 169 190 39 42
b 182 184 189 186 41 151
b 183 178 183 186 38 41
b 184 110 106 109 118 117
b 185 254 255 10 253 259
b 186 114 112 106 118 116
b 187 115 113 112 116 126
b 188 133 128 131 142 134
b 189 246 259 248 242 244
b 190 143 142 134 144 159
b 191 61 109 60 117 162
b 192 154 135 158 149 156
b 193 221 220 224 35 32
b 194 165 163 170 38 117
b 195 201 210 198 207 197
b 196 194 197 191 40 193
b 197 200 204 207 197 40
b 198 160 158 156 166 193
b 199 211 210 207 217 213
b 200 167 163 170 150 169
b 201 283 15 17 249 14 245
b 202 203 190 192 42 199 219
b 203 180 150 169 192 182 58
b 204 147 172 145 122 41 151
b 205 111 107 113 112 102 106
b 206 222 34 220 224 217 213
b 207 262 269 255 267 259 248
b 208 97 63 62 51 102 109 60
b 209 63 62 51 102 106 109 60
b 210 62 51 102 106 109 58 60
b 211 34 220 290 224 217 213 219
b 212 220 290 224 35 32 217 213 219
b 213 290 224 35 32 217 213 219 33
b 214 224 35 32 226 217 213 219 33
b 215 35 32 205 226 217 213 219 33
b 216 32 205 226 217 213 182 219 33
b 217 11 13 269 255 12 10 205
b 218 13 269 255 267 12 10 205
b 219 269 255 267 12 10 259 248 205
b 220 255 267 12 10 253 259 248 205
b 221 267 12 10 253 263 259 248 205
b 222 12 10 253 263 259 248 17 205
b 223 10 253 263 259 248 15 17 205
b 224 253 263 259 248 15 17 242 205
b 225 263 259 248 15 17 249 242 205
b 226 259 248 15 17 249 242 244 205
b 227 248 15 17 249 242 244 245 205
b 228 15 17 249 14 242 244 245 205
b 229 14 242 244 245 205 226
b 230 161 36 144 159 171 33 37
b 231 107 113 112 51 102 106 126 130
b 232 113 112 51 102 106 116 126 130
b 233 112 51 102 106 118 116 126 130
b 234 119 145 122 118 76 116 149
b 235 183 187 186 39 42 38 41
b 236 135 134 144 158 76 149 156
b 237 172 145 122 38 41 151 162
b 238 36 144 159 171 158 33 37 166
b 239 292 40 39 42 38 41
b 240 128 131 142 134 76 116 126
b 241 204 207 197 213 40 199 219
b 242 210 198 207 197 217 213 37 166
b 243 198 207 197 217 213 37 166 193
b 244 131 142 134 159 171 76 116 126 130
b 245 142 134 144 159 171 76 116 126 130
b 246 189 186 191 41 151 156 193
b 247 163 170 150 169 38 60 117 162
b 248 170 150 169 39 182 38 60 117 162
b 249 150 169 192 39 182 38 58 60 117 162
b 250 207 197 217 213 40 199 219 37 166 193
b 251 197 217 213 191 40 199 219 37 166 193
b 252 169 190 192 39 42 182 38 58 60 117 162
b 253 217 213 191 40 182 199 219 33 37 166 193
b 254 51 102 106 109 118 58 60 116 126 130
b 255 106 109 118 58 60 116 117 126 130
b 256 109 118 58 60 116 117 126 130 162
b 257 187 186 191 40 39 42 199 38 41
b 258 134 144 159 171 158 76 116 126 130 149 156
b 259 186 191 40 39 42 199 38 41 151 156 193
b 260 190 192 39 42 182 199 219 38 58 60 117 162
b 261 145 122 118 38 41 76 116 149 151 162
b 262 122 118 38 41 76 116 117 149 151 162
b 263 118 38 41 58 60 76 116 117 126 130 149 151 162
b 264 144 159 171 158 33 37 76 116 126 130 149 156 166
b 265 158 33 37 76 116 126 130 149 156 166 193
b 266 191 40 39 42 182 199 219 33 37 38 41 151 156 166 193
b 267 39 42 182 199 219 33 37 38 41 58 60 117 151 156 162 166 193
b 268 33 37 38 41 58 60 76 116 117 126 130 149 151 156 162 166 193
1 59
59 174
174 234
234 261
261 262
262 263
263 268
268 267
267 266
267 260
268 265
266 259
260 252
265 264
264 258
266 253
252 249
253 251
251 250
259 257
258 245
249 248
263 256
245 244
256 255
255 254
264 238
250 243
248 247
254 233
243 242
233 232
232 231
261 237
259 246
258 236
250 241
257 235
244 240
254 210
210 209
209 208
238 230
231 177
237 204
231 205
208 158
266 239
230 173
177 176
176 175
260 202
253 216
216 215
215 214
214 213
213 212
212 211
249 203
211 206
244 169
169 168
168 167
167 166
166 165
165 164
164 159
164 160
159 140
242 178
246 182
236 192
241 197
235 183
240 188
204 143
205 142
158 132
173 151
202 146
175 104
265 198
232 187
212 172
212 193
203 144
160 138
178 139
252 181
132 131
104 103
131 130
103 58
130 129
129 128
128 127
127 126
126 125
125 124
124 123
123 122
122 121
121 120
120 119
119 118
118 117
117 116
116 115
115 114
114 113
113 112
112 111
111 110
110 109
109 108
108 107
251 196
257 171
245 190
256 191
255 184
247 141
247 194
247 200
233 186
242 195
242 199
236 65
241 89
240 60
174 63
210 49
208 48
175 54
216 87
214 98
174 69
203 73
206 83
206 92
167 64
140 61
140 74
178 71
151 84
146 88
146 90
144 70
138 56
139 91
129 45
128 25
124 43
121 44
119 42
118 40
58 57
117 34
113 41
108 99
107 39
107 36
171 85
141 66
143 62
142 51
39 31
31 30
30 29
29 28
28 27
27 26
243 86
73 19
209 18
230 16
115 7
216 229
229 163
229 228
228 227
227 226
226 225
225 224
224 223
223 222
222 221
221 220
220 219
219 218
218 217
163 162
219 207
228 201
217 179
162 161
179 149
161 157
149 148
157 156
156 155
155 154
154 153
153 152
226 189
225 180
220 185
217 170
207 150
201 133
179 137
161 134
148 145
148 147
152 102
137 136
102 101
136 135
101 100
135 106
100 53
106 105
105 38
38 37
152 96
223 95
218 97
157 68
156 93
150 46
133 55
133 94
134 67
145 82
147 50
102 72
106 47
53 35
53 52
82 81
35 33
81 80
33 32
80 79
79 78
78 77
77 76
76 75
75 13
32 15
100 5
140 9
137 24
28 4
152 2
58 17
155 14
125 6
123 21
111 20
191 8
26 12
52 3
24 23
23 22
22 10
22 11
END

EOF
